Route #1: 1 62 30 27 59 78 2 34 24 11 1 
Route #2: 1 21 7 63 44 31 33 53 77 51 13 1 
Route #3: 1 40 3 64 17 29 5 23 1 
Route #4: 1 39 15 47 12 6 79 71 1 
Route #5: 1 1 28 8 68 43 35 65 26 57 75 1 
Route #6: 1 36 55 56 69 19 20 46 74 1 
Route #7: 1 10 14 52 37 60 70 66 67 73 42 1 
Route #8: 1 48 18 25 41 54 72 4 32 50 76 1 
Route #9: 1 49 38 58 45 22 16 1 
Route #10: 1 61 9 1 

Cost 2272.18
Time 0.9313


 * Another infos *

 Iterations: 80 Time: 0.9313 sec - 0.0155 min - 0.0003 horas
0.0000 h 0.0155 min
Problem dimension: 80
